robust/generate/spp_dkp_Lefebvre_et_al_2026/src/shortest_path_6_5.kp
47
115

[0.54 4.67 3.49 1.68 3.39 3.83 3.09 1.99 3.38 1.18 1.23 0.12 0.47 1.44 3.07 1.54 0.89 4.39 1.3 1.31 4.57 0.61 3.58 0.03]

[32 49 89 93 55 67 24 99 33 64 94 84 10 60 44 30 82 13 59 25 88 50 12 10]
