robust/generate/spp_dkp_Lefebvre_et_al_2026/src/shortest_path_6_5.lp
\ Model sp_6_5
\ LP format - for model browsing. Use MPS format to capture full model detail.
\ Signature: 0x1a3fed327f855427
Minimize
  24.08 y[0,3] + 45.62 y[0,4] + 4.24 y[1,2] + 39.85 y[1,3] + 23.26 y[1,4]
   + 9.43 y[1,5] + 4.24 y[2,1] + 43.66 y[2,3] + 25 y[2,4] + 9.43 y[2,5]
   + 24.08 y[3,0] + 39.85 y[3,1] + 43.66 y[3,2] + 27.8 y[3,4]
   + 46.53 y[3,5] + 45.62 y[4,0] + 23.26 y[4,1] + 25 y[4,2] + 27.8 y[4,3]
   + 32.65 y[4,5] + 9.43 y[5,1] + 9.43 y[5,2] + 46.53 y[5,3] + 32.65 y[5,4]
   + 2.408 r[0,3] + 4.562 r[0,4] + 0.424 r[1,2] + 3.985 r[1,3]
   + 2.326 r[1,4] + 0.943 r[1,5] + 0.424 r[2,1] + 4.366 r[2,3] + 2.5 r[2,4]
   + 0.943 r[2,5] + 2.408 r[3,0] + 3.985 r[3,1] + 4.366 r[3,2]
   + 2.78 r[3,4] + 4.653 r[3,5] + 4.562 r[4,0] + 2.326 r[4,1] + 2.5 r[4,2]
   + 2.78 r[4,3] + 3.265 r[4,5] + 0.943 r[5,1] + 0.943 r[5,2]
   + 4.653 r[5,3] + 3.265 r[5,4]
Subject To
 flow_cons_inner_nodes[1]: - y[1,2] - y[1,3] - y[1,4] - y[1,5] + y[2,1]
   + y[3,1] + y[4,1] + y[5,1] = 0
 flow_cons_inner_nodes[2]: y[1,2] - y[2,1] - y[2,3] - y[2,4] - y[2,5]
   + y[3,2] + y[4,2] + y[5,2] = 0
 flow_cons_inner_nodes[3]: y[0,3] + y[1,3] + y[2,3] - y[3,0] - y[3,1]
   - y[3,2] - y[3,4] - y[3,5] + y[4,3] + y[5,3] = 0
 flow_cons_inner_nodes[4]: y[0,4] + y[1,4] + y[2,4] + y[3,4] - y[4,0]
   - y[4,1] - y[4,2] - y[4,3] - y[4,5] + y[5,4] = 0
 flow_cons_source: y[0,3] + y[0,4] - y[3,0] - y[4,0] = 1
 flow_cons_target: y[1,5] + y[2,5] + y[3,5] + y[4,5] - y[5,1] - y[5,2]
   - y[5,3] - y[5,4] = 1
 primal_lower: - 0.54 y[0,3] - 4.67 y[0,4] - 3.49 y[1,2] - 1.68 y[1,3]
   - 3.39 y[1,4] - 3.83 y[1,5] - 3.09 y[2,1] - 1.99 y[2,3] - 3.38 y[2,4]
   - 1.18 y[2,5] - 1.23 y[3,0] - 0.12 y[3,1] - 0.47 y[3,2] - 1.44 y[3,4]
   - 3.07 y[3,5] - 1.54 y[4,0] - 0.89 y[4,1] - 4.39 y[4,2] - 1.3 y[4,3]
   - 1.31 y[4,5] - 4.57 y[5,1] - 0.61 y[5,2] - 3.58 y[5,3] - 0.03 y[5,4]
   + 32 u[0,3] + 49 u[0,4] + 89 u[1,2] + 93 u[1,3] + 55 u[1,4] + 67 u[1,5]
   + 24 u[2,1] + 99 u[2,3] + 33 u[2,4] + 64 u[2,5] + 94 u[3,0] + 84 u[3,1]
   + 10 u[3,2] + 60 u[3,4] + 44 u[3,5] + 30 u[4,0] + 82 u[4,1] + 13 u[4,2]
   + 59 u[4,3] + 25 u[4,5] + 88 u[5,1] + 50 u[5,2] + 12 u[5,3] + 10 u[5,4]
   <= 115
 mccormick1[0,3]: - u[0,3] + r[0,3] <= 0
 mccormick1[0,4]: - u[0,4] + r[0,4] <= 0
 mccormick1[1,2]: - u[1,2] + r[1,2] <= 0
 mccormick1[1,3]: - u[1,3] + r[1,3] <= 0
 mccormick1[1,4]: - u[1,4] + r[1,4] <= 0
 mccormick1[1,5]: - u[1,5] + r[1,5] <= 0
 mccormick1[2,1]: - u[2,1] + r[2,1] <= 0
 mccormick1[2,3]: - u[2,3] + r[2,3] <= 0
 mccormick1[2,4]: - u[2,4] + r[2,4] <= 0
 mccormick1[2,5]: - u[2,5] + r[2,5] <= 0
 mccormick1[3,0]: - u[3,0] + r[3,0] <= 0
 mccormick1[3,1]: - u[3,1] + r[3,1] <= 0
 mccormick1[3,2]: - u[3,2] + r[3,2] <= 0
 mccormick1[3,4]: - u[3,4] + r[3,4] <= 0
 mccormick1[3,5]: - u[3,5] + r[3,5] <= 0
 mccormick1[4,0]: - u[4,0] + r[4,0] <= 0
 mccormick1[4,1]: - u[4,1] + r[4,1] <= 0
 mccormick1[4,2]: - u[4,2] + r[4,2] <= 0
 mccormick1[4,3]: - u[4,3] + r[4,3] <= 0
 mccormick1[4,5]: - u[4,5] + r[4,5] <= 0
 mccormick1[5,1]: - u[5,1] + r[5,1] <= 0
 mccormick1[5,2]: - u[5,2] + r[5,2] <= 0
 mccormick1[5,3]: - u[5,3] + r[5,3] <= 0
 mccormick1[5,4]: - u[5,4] + r[5,4] <= 0
 mccormick2[0,3]: - y[0,3] + r[0,3] <= 0
 mccormick2[0,4]: - y[0,4] + r[0,4] <= 0
 mccormick2[1,2]: - y[1,2] + r[1,2] <= 0
 mccormick2[1,3]: - y[1,3] + r[1,3] <= 0
 mccormick2[1,4]: - y[1,4] + r[1,4] <= 0
 mccormick2[1,5]: - y[1,5] + r[1,5] <= 0
 mccormick2[2,1]: - y[2,1] + r[2,1] <= 0
 mccormick2[2,3]: - y[2,3] + r[2,3] <= 0
 mccormick2[2,4]: - y[2,4] + r[2,4] <= 0
 mccormick2[2,5]: - y[2,5] + r[2,5] <= 0
 mccormick2[3,0]: - y[3,0] + r[3,0] <= 0
 mccormick2[3,1]: - y[3,1] + r[3,1] <= 0
 mccormick2[3,2]: - y[3,2] + r[3,2] <= 0
 mccormick2[3,4]: - y[3,4] + r[3,4] <= 0
 mccormick2[3,5]: - y[3,5] + r[3,5] <= 0
 mccormick2[4,0]: - y[4,0] + r[4,0] <= 0
 mccormick2[4,1]: - y[4,1] + r[4,1] <= 0
 mccormick2[4,2]: - y[4,2] + r[4,2] <= 0
 mccormick2[4,3]: - y[4,3] + r[4,3] <= 0
 mccormick2[4,5]: - y[4,5] + r[4,5] <= 0
 mccormick2[5,1]: - y[5,1] + r[5,1] <= 0
 mccormick2[5,2]: - y[5,2] + r[5,2] <= 0
 mccormick2[5,3]: - y[5,3] + r[5,3] <= 0
 mccormick2[5,4]: - y[5,4] + r[5,4] <= 0
 mccormick3[0,3]: - y[0,3] - u[0,3] + r[0,3] >= -1
 mccormick3[0,4]: - y[0,4] - u[0,4] + r[0,4] >= -1
 mccormick3[1,2]: - y[1,2] - u[1,2] + r[1,2] >= -1
 mccormick3[1,3]: - y[1,3] - u[1,3] + r[1,3] >= -1
 mccormick3[1,4]: - y[1,4] - u[1,4] + r[1,4] >= -1
 mccormick3[1,5]: - y[1,5] - u[1,5] + r[1,5] >= -1
 mccormick3[2,1]: - y[2,1] - u[2,1] + r[2,1] >= -1
 mccormick3[2,3]: - y[2,3] - u[2,3] + r[2,3] >= -1
 mccormick3[2,4]: - y[2,4] - u[2,4] + r[2,4] >= -1
 mccormick3[2,5]: - y[2,5] - u[2,5] + r[2,5] >= -1
 mccormick3[3,0]: - y[3,0] - u[3,0] + r[3,0] >= -1
 mccormick3[3,1]: - y[3,1] - u[3,1] + r[3,1] >= -1
 mccormick3[3,2]: - y[3,2] - u[3,2] + r[3,2] >= -1
 mccormick3[3,4]: - y[3,4] - u[3,4] + r[3,4] >= -1
 mccormick3[3,5]: - y[3,5] - u[3,5] + r[3,5] >= -1
 mccormick3[4,0]: - y[4,0] - u[4,0] + r[4,0] >= -1
 mccormick3[4,1]: - y[4,1] - u[4,1] + r[4,1] >= -1
 mccormick3[4,2]: - y[4,2] - u[4,2] + r[4,2] >= -1
 mccormick3[4,3]: - y[4,3] - u[4,3] + r[4,3] >= -1
 mccormick3[4,5]: - y[4,5] - u[4,5] + r[4,5] >= -1
 mccormick3[5,1]: - y[5,1] - u[5,1] + r[5,1] >= -1
 mccormick3[5,2]: - y[5,2] - u[5,2] + r[5,2] >= -1
 mccormick3[5,3]: - y[5,3] - u[5,3] + r[5,3] >= -1
 mccormick3[5,4]: - y[5,4] - u[5,4] + r[5,4] >= -1
Bounds
Binaries
 y[0,3] y[0,4] y[1,2] y[1,3] y[1,4] y[1,5] y[2,1] y[2,3] y[2,4] y[2,5]
 y[3,0] y[3,1] y[3,2] y[3,4] y[3,5] y[4,0] y[4,1] y[4,2] y[4,3] y[4,5]
 y[5,1] y[5,2] y[5,3] y[5,4] u[0,3] u[0,4] u[1,2] u[1,3] u[1,4] u[1,5]
 u[2,1] u[2,3] u[2,4] u[2,5] u[3,0] u[3,1] u[3,2] u[3,4] u[3,5] u[4,0]
 u[4,1] u[4,2] u[4,3] u[4,5] u[5,1] u[5,2] u[5,3] u[5,4] r[0,3] r[0,4]
 r[1,2] r[1,3] r[1,4] r[1,5] r[2,1] r[2,3] r[2,4] r[2,5] r[3,0] r[3,1]
 r[3,2] r[3,4] r[3,5] r[4,0] r[4,1] r[4,2] r[4,3] r[4,5] r[5,1] r[5,2]
 r[5,3] r[5,4]
End
